c An instance of conditional planning (by rintanen@informatik.uni-freiburg.de)
p cnf 103  386 
e 47 48 49 50 51 52 53 54 55 56 57 58 59 60 61 62 63 64 65 66 67 68 69 70 71 72 73 74 75 76 77 78 79 80 81 0
a 89 88 90 0
e 1 2 3 4 5 6 7 8 9 10 11 12 13 14 15 16 17 18 19 20 21 22 23 24 25 26 27 28 29 30 31 32 33 34 35 36 37 38 39 40 41 42 43 44 45 46 82 83 84 85 86 87 91 92 93 94 95 96 97 98 99 100 101 102 103 0
-89 -91 88 90 0
-89 -92 88 90 0
-89 -93 88 90 0
-89 88 90 94 0
-89 -95 88 90 0
-89 -96 88 90 0
-88 -90 -91 89 0
-88 -90 -92 89 0
-88 -90 89 93 0
-88 -90 -94 89 0
-88 -90 -95 89 0
-88 -90 -96 89 0
-88 -91 89 90 0
-88 89 90 92 0
-88 -93 89 90 0
-88 -94 89 90 0
-88 -95 89 90 0
-88 -96 89 90 0
-90 88 89 91 0
-90 -92 88 89 0
-90 -93 88 89 0
-90 -94 88 89 0
-90 -95 88 89 0
-90 -96 88 89 0
-91 88 89 90 0
-92 88 89 90 0
-93 88 89 90 0
-94 88 89 90 0
-95 88 89 90 0
88 89 90 96 0
-89 -90 -91 88 0
-89 -90 -92 88 0
-89 -90 -93 88 0
-89 -90 -94 88 0
-89 -90 88 95 0
-89 -90 -96 88 0
-97 0
-98 0
-99 0
-100 0
-101 0
-102 0
-103 0
-47 -103 0
-47 -97 0
-5 -48 0
-1 -48 0
-6 -49 0
-2 -49 0
-7 -50 0
-3 -50 0
-52 -98 0
-52 -103 0
-12 -53 0
-5 -53 0
-13 -54 0
-6 -54 0
-14 -55 0
-7 -55 0
-57 -99 0
-57 -103 0
-19 -58 0
-5 -58 0
-20 -59 0
-6 -59 0
-21 -60 0
-7 -60 0
-62 -100 0
-62 -103 0
-26 -63 0
-5 -63 0
-27 -64 0
-6 -64 0
-28 -65 0
-7 -65 0
-67 -101 0
-67 -103 0
-33 -68 0
-5 -68 0
-34 -69 0
-6 -69 0
-35 -70 0
-7 -70 0
-72 -102 0
-72 -103 0
-40 -74 0
-5 -74 0
-41 -76 0
-6 -76 0
-42 -78 0
-7 -78 0
-73 103 0
-75 5 0
-77 6 0
-79 7 0
-47 5 0
-9 -47 0
-47 1 0
-48 6 0
-10 -48 0
-48 2 0
-49 7 0
-11 -49 0
-49 3 0
-50 8 0
-50 -82 0
-50 4 0
-52 12 0
-16 -52 0
-52 5 0
-53 13 0
-17 -53 0
-53 6 0
-54 14 0
-18 -54 0
-54 7 0
-55 15 0
-55 -83 0
-55 8 0
-57 19 0
-23 -57 0
-57 5 0
-58 20 0
-24 -58 0
-58 6 0
-59 21 0
-25 -59 0
-59 7 0
-60 22 0
-60 -84 0
-60 8 0
-62 26 0
-30 -62 0
-62 5 0
-63 27 0
-31 -63 0
-63 6 0
-64 28 0
-32 -64 0
-64 7 0
-65 29 0
-65 -85 0
-65 8 0
-67 33 0
-37 -67 0
-67 5 0
-68 34 0
-38 -68 0
-68 6 0
-69 35 0
-39 -69 0
-69 7 0
-70 36 0
-70 -86 0
-70 8 0
-72 40 0
-44 -72 0
-72 5 0
-74 41 0
-45 -74 0
-74 6 0
-76 42 0
-46 -76 0
-76 7 0
-78 43 0
-78 -87 0
-78 8 0
-5 -73 0
-6 -75 0
-7 -77 0
-8 -79 0
-1 47 97 0
-2 1 48 0
-3 2 49 0
-4 3 50 0
-97 1 0
-1 2 0
-2 3 0
-3 4 0
-5 47 52 57 62 67 72 103 0
-6 5 48 53 58 63 68 74 0
-7 6 49 54 59 64 69 76 0
-8 7 50 55 60 65 70 78 0
-103 5 73 0
-5 6 75 0
-6 7 77 0
-7 8 79 0
-9 96 0
-10 9 0
-11 10 0
-82 11 0
-96 9 47 0
-9 10 48 0
-10 11 49 0
-11 50 82 0
-12 52 98 0
-13 12 53 0
-14 13 54 0
-15 14 55 0
-98 12 0
-12 13 0
-13 14 0
-14 15 0
-16 91 0
-17 16 0
-18 17 0
-83 18 0
-91 16 52 0
-16 17 53 0
-17 18 54 0
-18 55 83 0
-19 57 99 0
-20 19 58 0
-21 20 59 0
-22 21 60 0
-99 19 0
-19 20 0
-20 21 0
-21 22 0
-23 92 0
-24 23 0
-25 24 0
-84 25 0
-92 23 57 0
-23 24 58 0
-24 25 59 0
-25 60 84 0
-26 62 100 0
-27 26 63 0
-28 27 64 0
-29 28 65 0
-100 26 0
-26 27 0
-27 28 0
-28 29 0
-30 93 0
-31 30 0
-32 31 0
-85 32 0
-93 30 62 0
-30 31 63 0
-31 32 64 0
-32 65 85 0
-33 67 101 0
-34 33 68 0
-35 34 69 0
-36 35 70 0
-101 33 0
-33 34 0
-34 35 0
-35 36 0
-37 94 0
-38 37 0
-39 38 0
-86 39 0
-94 37 67 0
-37 38 68 0
-38 39 69 0
-39 70 86 0
-40 72 102 0
-41 40 74 0
-42 41 76 0
-43 42 78 0
-102 40 0
-40 41 0
-41 42 0
-42 43 0
-44 95 0
-45 44 0
-46 45 0
-87 46 0
-95 44 72 0
-44 45 74 0
-45 46 76 0
-46 78 87 0
-47 -52 0
-48 -53 0
-49 -54 0
-50 -55 0
-51 -56 0
-47 -57 0
-48 -58 0
-49 -59 0
-50 -60 0
-51 -61 0
-47 -62 0
-48 -63 0
-49 -64 0
-50 -65 0
-51 -66 0
-47 -67 0
-48 -68 0
-49 -69 0
-50 -70 0
-51 -71 0
-47 -72 0
-48 -74 0
-49 -76 0
-50 -78 0
-51 -80 0
-47 -73 0
-48 -75 0
-49 -77 0
-50 -79 0
-51 -81 0
-52 -57 0
-53 -58 0
-54 -59 0
-55 -60 0
-56 -61 0
-52 -62 0
-53 -63 0
-54 -64 0
-55 -65 0
-56 -66 0
-52 -67 0
-53 -68 0
-54 -69 0
-55 -70 0
-56 -71 0
-52 -72 0
-53 -74 0
-54 -76 0
-55 -78 0
-56 -80 0
-52 -73 0
-53 -75 0
-54 -77 0
-55 -79 0
-56 -81 0
-57 -62 0
-58 -63 0
-59 -64 0
-60 -65 0
-61 -66 0
-57 -67 0
-58 -68 0
-59 -69 0
-60 -70 0
-61 -71 0
-57 -72 0
-58 -74 0
-59 -76 0
-60 -78 0
-61 -80 0
-57 -73 0
-58 -75 0
-59 -77 0
-60 -79 0
-61 -81 0
-62 -67 0
-63 -68 0
-64 -69 0
-65 -70 0
-66 -71 0
-62 -72 0
-63 -74 0
-64 -76 0
-65 -78 0
-66 -80 0
-62 -73 0
-63 -75 0
-64 -77 0
-65 -79 0
-66 -81 0
-67 -72 0
-68 -74 0
-69 -76 0
-70 -78 0
-71 -80 0
-67 -73 0
-68 -75 0
-69 -77 0
-70 -79 0
-71 -81 0
-72 -73 0
-74 -75 0
-76 -77 0
-78 -79 0
-80 -81 0
-82 0
-83 0
-84 0
-85 0
-86 0
-87 0
